269,107
694,432
891,406
1028,583
975,555
609,458
554,533
396,498
200,651
227,637
396,498
441,406
663,463
695,494
776,593
746,820
745,605
695,494
644,520
625,761
745,605
778,476
734,433
778,476
694,432
663,463
609,458
269,705
505,648
580,719
554,533
171,406
356,355
469,194
624,424
654,353
586,219
427,152
708,321
721,326
975,555
921,406
829,383
721,326
654,353
441,406
141,406
269,107
469,194
708,321
898,-21
829,383
858,753
776,593
